NAME                                                                    ( MAX)
ROWS
  N 1
  E 2
  L 3
  L 4
  G 5
COLUMNS
    X1        2            1.0000000
    X1        3            2.0000000
    X1        4            3.0000000
    X1        1            4.0000000
    X2        2            1.0000000
    X2        1            6.0000000
    X2        3            3.0000000
    X2        4            4.0000000
    X3        2            1.0000000
    X3        3            4.0000000
    X3        1            7.0000000
    X3        4            5.0000000
    X4        2            1.0000000
    X4        3            7.0000000
    X4        4            6.0000000
    X4        5            1.0000000
    X4        1            8.0000000
RHS
    RHS       2          950.0000000
    RHS       3            4600.0000
    RHS       4            5000.0000
    RHS       5          400.0000000
ENDATA
